GLPSOL: GLPK LP/MIP Solver, v4.55
Parameter(s) specified in the command line:
 -m tmp.mod
Reading model section from tmp.mod...
Reading data section from tmp.mod...
133 lines were read
Generating obj...
Generating kirhoff...
Generating init_charge...
Generating batt_size...
Model has been successfully generated
GLPK Simplex Optimizer, v4.55
66 rows, 108 columns, 206 non-zeros
Preprocessing...
51 rows, 93 columns, 183 non-zeros
Scaling...
 A: min|aij| =  1.000e+00  max|aij| =  1.000e+00  ratio =  1.000e+00
Problem data seem to be well scaled
Constructing initial basis...
Size of triangular part is 41
      0: obj =   0.000000000e+00  infeas =  6.500e+01 (10)
*    18: obj =   0.000000000e+00  infeas =  0.000e+00 (8)
OPTIMAL LP SOLUTION FOUND
Time used:   0.0 secs
Memory used: 0.3 Mb (325924 bytes)
#OUTPUT:
0
-15 1 -1 0 0 0 0 -12 -12 0 0 0 0 0 0 0 0 0 4 1 -4 0 0 0 
-12 -12 -1 -13 0 0 0 0 0 0 0 0 0 0 0 0 -13 0 0 1 0 0 0 0 
#OUTPUT END
Model has been successfully processed
